p cnf 176 2648
1 2 4 3 0
-1 -2 0
-1 -4 0
-1 -3 0
-2 -4 0
-2 -3 0
-3 -4 0
5 6 8 7 0
-5 -6 0
-5 -8 0
-5 -7 0
-6 -8 0
-6 -7 0
-7 -8 0
9 10 12 11 0
-9 -10 0
-9 -12 0
-9 -11 0
-10 -12 0
-10 -11 0
-11 -12 0
13 14 16 15 0
-13 -14 0
-13 -16 0
-13 -15 0
-14 -16 0
-14 -15 0
-15 -16 0
17 18 20 19 0
-17 -18 0
-17 -20 0
-17 -19 0
-18 -20 0
-18 -19 0
-19 -20 0
21 22 24 23 0
-21 -22 0
-21 -24 0
-21 -23 0
-22 -24 0
-22 -23 0
-23 -24 0
25 26 28 27 0
-25 -26 0
-25 -28 0
-25 -27 0
-26 -28 0
-26 -27 0
-27 -28 0
29 30 32 31 0
-29 -30 0
-29 -32 0
-29 -31 0
-30 -32 0
-30 -31 0
-31 -32 0
33 34 36 35 0
-33 -34 0
-33 -36 0
-33 -35 0
-34 -36 0
-34 -35 0
-35 -36 0
37 38 40 39 0
-37 -38 0
-37 -40 0
-37 -39 0
-38 -40 0
-38 -39 0
-39 -40 0
41 42 44 43 0
-41 -42 0
-41 -44 0
-41 -43 0
-42 -44 0
-42 -43 0
-43 -44 0
45 46 48 47 0
-45 -46 0
-45 -48 0
-45 -47 0
-46 -48 0
-46 -47 0
-47 -48 0
49 50 52 51 0
-49 -50 0
-49 -52 0
-49 -51 0
-50 -52 0
-50 -51 0
-51 -52 0
53 54 56 55 0
-53 -54 0
-53 -56 0
-53 -55 0
-54 -56 0
-54 -55 0
-55 -56 0
57 58 60 59 0
-57 -58 0
-57 -60 0
-57 -59 0
-58 -60 0
-58 -59 0
-59 -60 0
61 62 64 63 0
-61 -62 0
-61 -64 0
-61 -63 0
-62 -64 0
-62 -63 0
-63 -64 0
65 66 68 67 0
-65 -66 0
-65 -68 0
-65 -67 0
-66 -68 0
-66 -67 0
-67 -68 0
69 70 72 71 0
-69 -70 0
-69 -72 0
-69 -71 0
-70 -72 0
-70 -71 0
-71 -72 0
73 74 76 75 0
-73 -74 0
-73 -76 0
-73 -75 0
-74 -76 0
-74 -75 0
-75 -76 0
77 78 80 79 0
-77 -78 0
-77 -80 0
-77 -79 0
-78 -80 0
-78 -79 0
-79 -80 0
81 82 84 83 0
-81 -82 0
-81 -84 0
-81 -83 0
-82 -84 0
-82 -83 0
-83 -84 0
85 86 88 87 0
-85 -86 0
-85 -88 0
-85 -87 0
-86 -88 0
-86 -87 0
-87 -88 0
89 90 92 91 0
-89 -90 0
-89 -92 0
-89 -91 0
-90 -92 0
-90 -91 0
-91 -92 0
93 94 96 95 0
-93 -94 0
-93 -96 0
-93 -95 0
-94 -96 0
-94 -95 0
-95 -96 0
97 98 100 99 0
-97 -98 0
-97 -100 0
-97 -99 0
-98 -100 0
-98 -99 0
-99 -100 0
101 102 104 103 0
-101 -102 0
-101 -104 0
-101 -103 0
-102 -104 0
-102 -103 0
-103 -104 0
105 106 108 107 0
-105 -106 0
-105 -108 0
-105 -107 0
-106 -108 0
-106 -107 0
-107 -108 0
109 110 112 111 0
-109 -110 0
-109 -112 0
-109 -111 0
-110 -112 0
-110 -111 0
-111 -112 0
113 114 116 115 0
-113 -114 0
-113 -116 0
-113 -115 0
-114 -116 0
-114 -115 0
-115 -116 0
117 118 120 119 0
-117 -118 0
-117 -120 0
-117 -119 0
-118 -120 0
-118 -119 0
-119 -120 0
121 122 124 123 0
-121 -122 0
-121 -124 0
-121 -123 0
-122 -124 0
-122 -123 0
-123 -124 0
125 126 128 127 0
-125 -126 0
-125 -128 0
-125 -127 0
-126 -128 0
-126 -127 0
-127 -128 0
129 130 132 131 0
-129 -130 0
-129 -132 0
-129 -131 0
-130 -132 0
-130 -131 0
-131 -132 0
133 134 136 135 0
-133 -134 0
-133 -136 0
-133 -135 0
-134 -136 0
-134 -135 0
-135 -136 0
137 138 140 139 0
-137 -138 0
-137 -140 0
-137 -139 0
-138 -140 0
-138 -139 0
-139 -140 0
141 142 144 143 0
-141 -142 0
-141 -144 0
-141 -143 0
-142 -144 0
-142 -143 0
-143 -144 0
145 146 148 147 0
-145 -146 0
-145 -148 0
-145 -147 0
-146 -148 0
-146 -147 0
-147 -148 0
149 150 152 151 0
-149 -150 0
-149 -152 0
-149 -151 0
-150 -152 0
-150 -151 0
-151 -152 0
153 154 156 155 0
-153 -154 0
-153 -156 0
-153 -155 0
-154 -156 0
-154 -155 0
-155 -156 0
157 158 160 159 0
-157 -158 0
-157 -160 0
-157 -159 0
-158 -160 0
-158 -159 0
-159 -160 0
161 162 164 163 0
-161 -162 0
-161 -164 0
-161 -163 0
-162 -164 0
-162 -163 0
-163 -164 0
165 166 168 167 0
-165 -166 0
-165 -168 0
-165 -167 0
-166 -168 0
-166 -167 0
-167 -168 0
169 170 172 171 0
-169 -170 0
-169 -172 0
-169 -171 0
-170 -172 0
-170 -171 0
-171 -172 0
173 174 176 175 0
-173 -174 0
-173 -176 0
-173 -175 0
-174 -176 0
-174 -175 0
-175 -176 0
-1 14 0
-14 1 0
-2 13 0
-13 2 0
-4 15 0
-15 4 0
-3 16 0
-16 3 0
-5 26 0
-26 5 0
-6 25 0
-25 6 0
-8 27 0
-27 8 0
-7 28 0
-28 7 0
-9 90 0
-90 9 0
-10 89 0
-89 10 0
-12 91 0
-91 12 0
-11 92 0
-92 11 0
-17 42 0
-42 17 0
-18 41 0
-41 18 0
-20 43 0
-43 20 0
-19 44 0
-44 19 0
-21 74 0
-74 21 0
-22 73 0
-73 22 0
-24 75 0
-75 24 0
-23 76 0
-76 23 0
-29 46 0
-46 29 0
-30 45 0
-45 30 0
-32 47 0
-47 32 0
-31 48 0
-48 31 0
-33 58 0
-58 33 0
-34 57 0
-57 34 0
-36 59 0
-59 36 0
-35 60 0
-60 35 0
-37 114 0
-114 37 0
-38 113 0
-113 38 0
-40 115 0
-115 40 0
-39 116 0
-116 39 0
-49 66 0
-66 49 0
-50 65 0
-65 50 0
-52 67 0
-67 52 0
-51 68 0
-68 51 0
-53 86 0
-86 53 0
-54 85 0
-85 54 0
-56 87 0
-87 56 0
-55 88 0
-88 55 0
-61 70 0
-70 61 0
-62 69 0
-69 62 0
-64 71 0
-71 64 0
-63 72 0
-72 63 0
-77 82 0
-82 77 0
-78 81 0
-81 78 0
-80 83 0
-83 80 0
-79 84 0
-84 79 0
-93 102 0
-102 93 0
-94 101 0
-101 94 0
-96 103 0
-103 96 0
-95 104 0
-104 95 0
-97 174 0
-174 97 0
-98 173 0
-173 98 0
-100 175 0
-175 100 0
-99 176 0
-176 99 0
-105 110 0
-110 105 0
-106 109 0
-109 106 0
-108 111 0
-111 108 0
-107 112 0
-112 107 0
-117 122 0
-122 117 0
-118 121 0
-121 118 0
-120 123 0
-123 120 0
-119 124 0
-124 119 0
-125 130 0
-130 125 0
-126 129 0
-129 126 0
-128 131 0
-131 128 0
-127 132 0
-132 127 0
-133 138 0
-138 133 0
-134 137 0
-137 134 0
-136 139 0
-139 136 0
-135 140 0
-140 135 0
-141 166 0
-166 141 0
-142 165 0
-165 142 0
-144 167 0
-167 144 0
-143 168 0
-168 143 0
-145 154 0
-154 145 0
-146 153 0
-153 146 0
-148 155 0
-155 148 0
-147 156 0
-156 147 0
-149 162 0
-162 149 0
-150 161 0
-161 150 0
-152 163 0
-163 152 0
-151 164 0
-164 151 0
-157 170 0
-170 157 0
-158 169 0
-169 158 0
-160 171 0
-171 160 0
-159 172 0
-172 159 0
-1 -5 0
-1 -9 0
-5 -9 0
-13 -17 0
-13 -21 0
-17 -21 0
25 29 33 37 0
41 45 49 53 0
-57 -61 0
-65 -69 0
-73 -77 0
-81 -85 0
-89 -93 0
-89 -97 0
-93 -97 0
-101 -105 0
-109 -113 0
-109 -117 0
-113 -117 0
-121 -125 0
-129 -133 0
-137 -141 0
-137 -145 0
-141 -145 0
-149 -153 0
-157 -161 0
-165 -169 0
-165 -173 0
-169 -173 0
-2 -6 0
-2 -10 0
-6 -10 0
-14 -18 0
-14 -22 0
-18 -22 0
26 30 34 38 0
42 46 50 54 0
-58 -62 0
-66 -70 0
-74 -78 0
-82 -86 0
-90 -94 0
-90 -98 0
-94 -98 0
-102 -106 0
-110 -114 0
-110 -118 0
-114 -118 0
-122 -126 0
-130 -134 0
-138 -142 0
-138 -146 0
-142 -146 0
-150 -154 0
-158 -162 0
-166 -170 0
-166 -174 0
-170 -174 0
-4 -8 0
-4 -12 0
-8 -12 0
-16 -20 0
-16 -24 0
-20 -24 0
28 32 36 40 0
44 48 52 56 0
-60 -64 0
-68 -72 0
-76 -80 0
-84 -88 0
-92 -96 0
-92 -100 0
-96 -100 0
-104 -108 0
-112 -116 0
-112 -120 0
-116 -120 0
-124 -128 0
-132 -136 0
-140 -144 0
-140 -148 0
-144 -148 0
-152 -156 0
-160 -164 0
-168 -172 0
-168 -176 0
-172 -176 0
-3 -7 0
-3 -11 0
-7 -11 0
-15 -19 0
-15 -23 0
-19 -23 0
27 31 35 39 0
43 47 51 55 0
-59 -63 0
-67 -71 0
-75 -79 0
-83 -87 0
-91 -95 0
-91 -99 0
-95 -99 0
-103 -107 0
-111 -115 0
-111 -119 0
-115 -119 0
-123 -127 0
-131 -135 0
-139 -143 0
-139 -147 0
-143 -147 0
-151 -155 0
-159 -163 0
-167 -171 0
-167 -175 0
-171 -175 0
-1 -5 0
-1 -9 0
-5 -9 0
-13 -17 0
-13 -21 0
-17 -21 0
25 29 33 37 0
41 45 49 53 0
-57 -61 0
-65 -69 0
-73 -77 0
-81 -85 0
-89 -93 0
-89 -97 0
-93 -97 0
-101 -105 0
-109 -113 0
-109 -117 0
-113 -117 0
-121 -125 0
-129 -133 0
-137 -141 0
-137 -145 0
-141 -145 0
-149 -153 0
-157 -161 0
-165 -169 0
-165 -173 0
-169 -173 0
-2 -6 0
-2 -10 0
-6 -10 0
-14 -18 0
-14 -22 0
-18 -22 0
26 30 34 38 0
42 46 50 54 0
-58 -62 0
-66 -70 0
-74 -78 0
-82 -86 0
-90 -94 0
-90 -98 0
-94 -98 0
-102 -106 0
-110 -114 0
-110 -118 0
-114 -118 0
-122 -126 0
-130 -134 0
-138 -142 0
-138 -146 0
-142 -146 0
-150 -154 0
-158 -162 0
-166 -170 0
-166 -174 0
-170 -174 0
-4 -8 0
-4 -12 0
-8 -12 0
-16 -20 0
-16 -24 0
-20 -24 0
28 32 36 40 0
44 48 52 56 0
-60 -64 0
-68 -72 0
-76 -80 0
-84 -88 0
-92 -96 0
-92 -100 0
-96 -100 0
-104 -108 0
-112 -116 0
-112 -120 0
-116 -120 0
-124 -128 0
-132 -136 0
-140 -144 0
-140 -148 0
-144 -148 0
-152 -156 0
-160 -164 0
-168 -172 0
-168 -176 0
-172 -176 0
-3 -7 0
-3 -11 0
-7 -11 0
-15 -19 0
-15 -23 0
-19 -23 0
27 31 35 39 0
43 47 51 55 0
-59 -63 0
-67 -71 0
-75 -79 0
-83 -87 0
-91 -95 0
-91 -99 0
-95 -99 0
-103 -107 0
-111 -115 0
-111 -119 0
-115 -119 0
-123 -127 0
-131 -135 0
-139 -143 0
-139 -147 0
-143 -147 0
-151 -155 0
-159 -163 0
-167 -171 0
-167 -175 0
-171 -175 0
-1 -5 0
-1 -9 0
-5 -9 0
-13 -17 0
-13 -21 0
-17 -21 0
25 29 33 37 0
41 45 49 53 0
-57 -61 0
-65 -69 0
-73 -77 0
-81 -85 0
-89 -93 0
-89 -97 0
-93 -97 0
-101 -105 0
-109 -113 0
-109 -117 0
-113 -117 0
-121 -125 0
-129 -133 0
-137 -141 0
-137 -145 0
-141 -145 0
-149 -153 0
-157 -161 0
-165 -169 0
-165 -173 0
-169 -173 0
-2 -6 0
-2 -10 0
-6 -10 0
-14 -18 0
-14 -22 0
-18 -22 0
26 30 34 38 0
42 46 50 54 0
-58 -62 0
-66 -70 0
-74 -78 0
-82 -86 0
-90 -94 0
-90 -98 0
-94 -98 0
-102 -106 0
-110 -114 0
-110 -118 0
-114 -118 0
-122 -126 0
-130 -134 0
-138 -142 0
-138 -146 0
-142 -146 0
-150 -154 0
-158 -162 0
-166 -170 0
-166 -174 0
-170 -174 0
-4 -8 0
-4 -12 0
-8 -12 0
-16 -20 0
-16 -24 0
-20 -24 0
28 32 36 40 0
44 48 52 56 0
-60 -64 0
-68 -72 0
-76 -80 0
-84 -88 0
-92 -96 0
-92 -100 0
-96 -100 0
-104 -108 0
-112 -116 0
-112 -120 0
-116 -120 0
-124 -128 0
-132 -136 0
-140 -144 0
-140 -148 0
-144 -148 0
-152 -156 0
-160 -164 0
-168 -172 0
-168 -176 0
-172 -176 0
-3 -7 0
-3 -11 0
-7 -11 0
-15 -19 0
-15 -23 0
-19 -23 0
27 31 35 39 0
43 47 51 55 0
-59 -63 0
-67 -71 0
-75 -79 0
-83 -87 0
-91 -95 0
-91 -99 0
-95 -99 0
-103 -107 0
-111 -115 0
-111 -119 0
-115 -119 0
-123 -127 0
-131 -135 0
-139 -143 0
-139 -147 0
-143 -147 0
-151 -155 0
-159 -163 0
-167 -171 0
-167 -175 0
-171 -175 0
-1 -5 0
-1 -9 0
-5 -9 0
-13 -17 0
-13 -21 0
-17 -21 0
25 29 33 37 0
41 45 49 53 0
-57 -61 0
-65 -69 0
-73 -77 0
-81 -85 0
-89 -93 0
-89 -97 0
-93 -97 0
-101 -105 0
-109 -113 0
-109 -117 0
-113 -117 0
-121 -125 0
-129 -133 0
-137 -141 0
-137 -145 0
-141 -145 0
-149 -153 0
-157 -161 0
-165 -169 0
-165 -173 0
-169 -173 0
-2 -6 0
-2 -10 0
-6 -10 0
-14 -18 0
-14 -22 0
-18 -22 0
26 30 34 38 0
42 46 50 54 0
-58 -62 0
-66 -70 0
-74 -78 0
-82 -86 0
-90 -94 0
-90 -98 0
-94 -98 0
-102 -106 0
-110 -114 0
-110 -118 0
-114 -118 0
-122 -126 0
-130 -134 0
-138 -142 0
-138 -146 0
-142 -146 0
-150 -154 0
-158 -162 0
-166 -170 0
-166 -174 0
-170 -174 0
-4 -8 0
-4 -12 0
-8 -12 0
-16 -20 0
-16 -24 0
-20 -24 0
28 32 36 40 0
44 48 52 56 0
-60 -64 0
-68 -72 0
-76 -80 0
-84 -88 0
-92 -96 0
-92 -100 0
-96 -100 0
-104 -108 0
-112 -116 0
-112 -120 0
-116 -120 0
-124 -128 0
-132 -136 0
-140 -144 0
-140 -148 0
-144 -148 0
-152 -156 0
-160 -164 0
-168 -172 0
-168 -176 0
-172 -176 0
-3 -7 0
-3 -11 0
-7 -11 0
-15 -19 0
-15 -23 0
-19 -23 0
27 31 35 39 0
43 47 51 55 0
-59 -63 0
-67 -71 0
-75 -79 0
-83 -87 0
-91 -95 0
-91 -99 0
-95 -99 0
-103 -107 0
-111 -115 0
-111 -119 0
-115 -119 0
-123 -127 0
-131 -135 0
-139 -143 0
-139 -147 0
-143 -147 0
-151 -155 0
-159 -163 0
-167 -171 0
-167 -175 0
-171 -175 0
-1 -5 0
-1 -9 0
-5 -9 0
-13 -17 0
-13 -21 0
-17 -21 0
25 29 33 37 0
41 45 49 53 0
-57 -61 0
-65 -69 0
-73 -77 0
-81 -85 0
-89 -93 0
-89 -97 0
-93 -97 0
-101 -105 0
-109 -113 0
-109 -117 0
-113 -117 0
-121 -125 0
-129 -133 0
-137 -141 0
-137 -145 0
-141 -145 0
-149 -153 0
-157 -161 0
-165 -169 0
-165 -173 0
-169 -173 0
-2 -6 0
-2 -10 0
-6 -10 0
-14 -18 0
-14 -22 0
-18 -22 0
26 30 34 38 0
42 46 50 54 0
-58 -62 0
-66 -70 0
-74 -78 0
-82 -86 0
-90 -94 0
-90 -98 0
-94 -98 0
-102 -106 0
-110 -114 0
-110 -118 0
-114 -118 0
-122 -126 0
-130 -134 0
-138 -142 0
-138 -146 0
-142 -146 0
-150 -154 0
-158 -162 0
-166 -170 0
-166 -174 0
-170 -174 0
-4 -8 0
-4 -12 0
-8 -12 0
-16 -20 0
-16 -24 0
-20 -24 0
28 32 36 40 0
44 48 52 56 0
-60 -64 0
-68 -72 0
-76 -80 0
-84 -88 0
-92 -96 0
-92 -100 0
-96 -100 0
-104 -108 0
-112 -116 0
-112 -120 0
-116 -120 0
-124 -128 0
-132 -136 0
-140 -144 0
-140 -148 0
-144 -148 0
-152 -156 0
-160 -164 0
-168 -172 0
-168 -176 0
-172 -176 0
-3 -7 0
-3 -11 0
-7 -11 0
-15 -19 0
-15 -23 0
-19 -23 0
27 31 35 39 0
43 47 51 55 0
-59 -63 0
-67 -71 0
-75 -79 0
-83 -87 0
-91 -95 0
-91 -99 0
-95 -99 0
-103 -107 0
-111 -115 0
-111 -119 0
-115 -119 0
-123 -127 0
-131 -135 0
-139 -143 0
-139 -147 0
-143 -147 0
-151 -155 0
-159 -163 0
-167 -171 0
-167 -175 0
-171 -175 0
-1 -5 0
-1 -9 0
-5 -9 0
-13 -17 0
-13 -21 0
-17 -21 0
25 29 33 37 0
41 45 49 53 0
-57 -61 0
-65 -69 0
-73 -77 0
-81 -85 0
-89 -93 0
-89 -97 0
-93 -97 0
-101 -105 0
-109 -113 0
-109 -117 0
-113 -117 0
-121 -125 0
-129 -133 0
-137 -141 0
-137 -145 0
-141 -145 0
-149 -153 0
-157 -161 0
-165 -169 0
-165 -173 0
-169 -173 0
-2 -6 0
-2 -10 0
-6 -10 0
-14 -18 0
-14 -22 0
-18 -22 0
26 30 34 38 0
42 46 50 54 0
-58 -62 0
-66 -70 0
-74 -78 0
-82 -86 0
-90 -94 0
-90 -98 0
-94 -98 0
-102 -106 0
-110 -114 0
-110 -118 0
-114 -118 0
-122 -126 0
-130 -134 0
-138 -142 0
-138 -146 0
-142 -146 0
-150 -154 0
-158 -162 0
-166 -170 0
-166 -174 0
-170 -174 0
-4 -8 0
-4 -12 0
-8 -12 0
-16 -20 0
-16 -24 0
-20 -24 0
28 32 36 40 0
44 48 52 56 0
-60 -64 0
-68 -72 0
-76 -80 0
-84 -88 0
-92 -96 0
-92 -100 0
-96 -100 0
-104 -108 0
-112 -116 0
-112 -120 0
-116 -120 0
-124 -128 0
-132 -136 0
-140 -144 0
-140 -148 0
-144 -148 0
-152 -156 0
-160 -164 0
-168 -172 0
-168 -176 0
-172 -176 0
-3 -7 0
-3 -11 0
-7 -11 0
-15 -19 0
-15 -23 0
-19 -23 0
27 31 35 39 0
43 47 51 55 0
-59 -63 0
-67 -71 0
-75 -79 0
-83 -87 0
-91 -95 0
-91 -99 0
-95 -99 0
-103 -107 0
-111 -115 0
-111 -119 0
-115 -119 0
-123 -127 0
-131 -135 0
-139 -143 0
-139 -147 0
-143 -147 0
-151 -155 0
-159 -163 0
-167 -171 0
-167 -175 0
-171 -175 0
-1 -5 0
-1 -9 0
-5 -9 0
-13 -17 0
-13 -21 0
-17 -21 0
25 29 33 37 0
41 45 49 53 0
-57 -61 0
-65 -69 0
-73 -77 0
-81 -85 0
-89 -93 0
-89 -97 0
-93 -97 0
-101 -105 0
-109 -113 0
-109 -117 0
-113 -117 0
-121 -125 0
-129 -133 0
-137 -141 0
-137 -145 0
-141 -145 0
-149 -153 0
-157 -161 0
-165 -169 0
-165 -173 0
-169 -173 0
-2 -6 0
-2 -10 0
-6 -10 0
-14 -18 0
-14 -22 0
-18 -22 0
26 30 34 38 0
42 46 50 54 0
-58 -62 0
-66 -70 0
-74 -78 0
-82 -86 0
-90 -94 0
-90 -98 0
-94 -98 0
-102 -106 0
-110 -114 0
-110 -118 0
-114 -118 0
-122 -126 0
-130 -134 0
-138 -142 0
-138 -146 0
-142 -146 0
-150 -154 0
-158 -162 0
-166 -170 0
-166 -174 0
-170 -174 0
-4 -8 0
-4 -12 0
-8 -12 0
-16 -20 0
-16 -24 0
-20 -24 0
28 32 36 40 0
44 48 52 56 0
-60 -64 0
-68 -72 0
-76 -80 0
-84 -88 0
-92 -96 0
-92 -100 0
-96 -100 0
-104 -108 0
-112 -116 0
-112 -120 0
-116 -120 0
-124 -128 0
-132 -136 0
-140 -144 0
-140 -148 0
-144 -148 0
-152 -156 0
-160 -164 0
-168 -172 0
-168 -176 0
-172 -176 0
-3 -7 0
-3 -11 0
-7 -11 0
-15 -19 0
-15 -23 0
-19 -23 0
27 31 35 39 0
43 47 51 55 0
-59 -63 0
-67 -71 0
-75 -79 0
-83 -87 0
-91 -95 0
-91 -99 0
-95 -99 0
-103 -107 0
-111 -115 0
-111 -119 0
-115 -119 0
-123 -127 0
-131 -135 0
-139 -143 0
-139 -147 0
-143 -147 0
-151 -155 0
-159 -163 0
-167 -171 0
-167 -175 0
-171 -175 0
-1 -5 0
-1 -9 0
-5 -9 0
-13 -17 0
-13 -21 0
-17 -21 0
25 29 33 37 0
41 45 49 53 0
-57 -61 0
-65 -69 0
-73 -77 0
-81 -85 0
-89 -93 0
-89 -97 0
-93 -97 0
-101 -105 0
-109 -113 0
-109 -117 0
-113 -117 0
-121 -125 0
-129 -133 0
-137 -141 0
-137 -145 0
-141 -145 0
-149 -153 0
-157 -161 0
-165 -169 0
-165 -173 0
-169 -173 0
-2 -6 0
-2 -10 0
-6 -10 0
-14 -18 0
-14 -22 0
-18 -22 0
26 30 34 38 0
42 46 50 54 0
-58 -62 0
-66 -70 0
-74 -78 0
-82 -86 0
-90 -94 0
-90 -98 0
-94 -98 0
-102 -106 0
-110 -114 0
-110 -118 0
-114 -118 0
-122 -126 0
-130 -134 0
-138 -142 0
-138 -146 0
-142 -146 0
-150 -154 0
-158 -162 0
-166 -170 0
-166 -174 0
-170 -174 0
-4 -8 0
-4 -12 0
-8 -12 0
-16 -20 0
-16 -24 0
-20 -24 0
28 32 36 40 0
44 48 52 56 0
-60 -64 0
-68 -72 0
-76 -80 0
-84 -88 0
-92 -96 0
-92 -100 0
-96 -100 0
-104 -108 0
-112 -116 0
-112 -120 0
-116 -120 0
-124 -128 0
-132 -136 0
-140 -144 0
-140 -148 0
-144 -148 0
-152 -156 0
-160 -164 0
-168 -172 0
-168 -176 0
-172 -176 0
-3 -7 0
-3 -11 0
-7 -11 0
-15 -19 0
-15 -23 0
-19 -23 0
27 31 35 39 0
43 47 51 55 0
-59 -63 0
-67 -71 0
-75 -79 0
-83 -87 0
-91 -95 0
-91 -99 0
-95 -99 0
-103 -107 0
-111 -115 0
-111 -119 0
-115 -119 0
-123 -127 0
-131 -135 0
-139 -143 0
-139 -147 0
-143 -147 0
-151 -155 0
-159 -163 0
-167 -171 0
-167 -175 0
-171 -175 0
-1 -5 0
-1 -9 0
-5 -9 0
-13 -17 0
-13 -21 0
-17 -21 0
25 29 33 37 0
41 45 49 53 0
-57 -61 0
-65 -69 0
-73 -77 0
-81 -85 0
-89 -93 0
-89 -97 0
-93 -97 0
-101 -105 0
-109 -113 0
-109 -117 0
-113 -117 0
-121 -125 0
-129 -133 0
-137 -141 0
-137 -145 0
-141 -145 0
-149 -153 0
-157 -161 0
-165 -169 0
-165 -173 0
-169 -173 0
-2 -6 0
-2 -10 0
-6 -10 0
-14 -18 0
-14 -22 0
-18 -22 0
26 30 34 38 0
42 46 50 54 0
-58 -62 0
-66 -70 0
-74 -78 0
-82 -86 0
-90 -94 0
-90 -98 0
-94 -98 0
-102 -106 0
-110 -114 0
-110 -118 0
-114 -118 0
-122 -126 0
-130 -134 0
-138 -142 0
-138 -146 0
-142 -146 0
-150 -154 0
-158 -162 0
-166 -170 0
-166 -174 0
-170 -174 0
-4 -8 0
-4 -12 0
-8 -12 0
-16 -20 0
-16 -24 0
-20 -24 0
28 32 36 40 0
44 48 52 56 0
-60 -64 0
-68 -72 0
-76 -80 0
-84 -88 0
-92 -96 0
-92 -100 0
-96 -100 0
-104 -108 0
-112 -116 0
-112 -120 0
-116 -120 0
-124 -128 0
-132 -136 0
-140 -144 0
-140 -148 0
-144 -148 0
-152 -156 0
-160 -164 0
-168 -172 0
-168 -176 0
-172 -176 0
-3 -7 0
-3 -11 0
-7 -11 0
-15 -19 0
-15 -23 0
-19 -23 0
27 31 35 39 0
43 47 51 55 0
-59 -63 0
-67 -71 0
-75 -79 0
-83 -87 0
-91 -95 0
-91 -99 0
-95 -99 0
-103 -107 0
-111 -115 0
-111 -119 0
-115 -119 0
-123 -127 0
-131 -135 0
-139 -143 0
-139 -147 0
-143 -147 0
-151 -155 0
-159 -163 0
-167 -171 0
-167 -175 0
-171 -175 0
-1 -5 0
-1 -9 0
-5 -9 0
-13 -17 0
-13 -21 0
-17 -21 0
25 29 33 37 0
41 45 49 53 0
-57 -61 0
-65 -69 0
-73 -77 0
-81 -85 0
-89 -93 0
-89 -97 0
-93 -97 0
-101 -105 0
-109 -113 0
-109 -117 0
-113 -117 0
-121 -125 0
-129 -133 0
-137 -141 0
-137 -145 0
-141 -145 0
-149 -153 0
-157 -161 0
-165 -169 0
-165 -173 0
-169 -173 0
-2 -6 0
-2 -10 0
-6 -10 0
-14 -18 0
-14 -22 0
-18 -22 0
26 30 34 38 0
42 46 50 54 0
-58 -62 0
-66 -70 0
-74 -78 0
-82 -86 0
-90 -94 0
-90 -98 0
-94 -98 0
-102 -106 0
-110 -114 0
-110 -118 0
-114 -118 0
-122 -126 0
-130 -134 0
-138 -142 0
-138 -146 0
-142 -146 0
-150 -154 0
-158 -162 0
-166 -170 0
-166 -174 0
-170 -174 0
-4 -8 0
-4 -12 0
-8 -12 0
-16 -20 0
-16 -24 0
-20 -24 0
28 32 36 40 0
44 48 52 56 0
-60 -64 0
-68 -72 0
-76 -80 0
-84 -88 0
-92 -96 0
-92 -100 0
-96 -100 0
-104 -108 0
-112 -116 0
-112 -120 0
-116 -120 0
-124 -128 0
-132 -136 0
-140 -144 0
-140 -148 0
-144 -148 0
-152 -156 0
-160 -164 0
-168 -172 0
-168 -176 0
-172 -176 0
-3 -7 0
-3 -11 0
-7 -11 0
-15 -19 0
-15 -23 0
-19 -23 0
27 31 35 39 0
43 47 51 55 0
-59 -63 0
-67 -71 0
-75 -79 0
-83 -87 0
-91 -95 0
-91 -99 0
-95 -99 0
-103 -107 0
-111 -115 0
-111 -119 0
-115 -119 0
-123 -127 0
-131 -135 0
-139 -143 0
-139 -147 0
-143 -147 0
-151 -155 0
-159 -163 0
-167 -171 0
-167 -175 0
-171 -175 0
-1 -5 0
-1 -9 0
-5 -9 0
-13 -17 0
-13 -21 0
-17 -21 0
25 29 33 37 0
41 45 49 53 0
-57 -61 0
-65 -69 0
-73 -77 0
-81 -85 0
-89 -93 0
-89 -97 0
-93 -97 0
-101 -105 0
-109 -113 0
-109 -117 0
-113 -117 0
-121 -125 0
-129 -133 0
-137 -141 0
-137 -145 0
-141 -145 0
-149 -153 0
-157 -161 0
-165 -169 0
-165 -173 0
-169 -173 0
-2 -6 0
-2 -10 0
-6 -10 0
-14 -18 0
-14 -22 0
-18 -22 0
26 30 34 38 0
42 46 50 54 0
-58 -62 0
-66 -70 0
-74 -78 0
-82 -86 0
-90 -94 0
-90 -98 0
-94 -98 0
-102 -106 0
-110 -114 0
-110 -118 0
-114 -118 0
-122 -126 0
-130 -134 0
-138 -142 0
-138 -146 0
-142 -146 0
-150 -154 0
-158 -162 0
-166 -170 0
-166 -174 0
-170 -174 0
-4 -8 0
-4 -12 0
-8 -12 0
-16 -20 0
-16 -24 0
-20 -24 0
28 32 36 40 0
44 48 52 56 0
-60 -64 0
-68 -72 0
-76 -80 0
-84 -88 0
-92 -96 0
-92 -100 0
-96 -100 0
-104 -108 0
-112 -116 0
-112 -120 0
-116 -120 0
-124 -128 0
-132 -136 0
-140 -144 0
-140 -148 0
-144 -148 0
-152 -156 0
-160 -164 0
-168 -172 0
-168 -176 0
-172 -176 0
-3 -7 0
-3 -11 0
-7 -11 0
-15 -19 0
-15 -23 0
-19 -23 0
27 31 35 39 0
43 47 51 55 0
-59 -63 0
-67 -71 0
-75 -79 0
-83 -87 0
-91 -95 0
-91 -99 0
-95 -99 0
-103 -107 0
-111 -115 0
-111 -119 0
-115 -119 0
-123 -127 0
-131 -135 0
-139 -143 0
-139 -147 0
-143 -147 0
-151 -155 0
-159 -163 0
-167 -171 0
-167 -175 0
-171 -175 0
-1 -5 0
-1 -9 0
-5 -9 0
-13 -17 0
-13 -21 0
-17 -21 0
25 29 33 37 0
41 45 49 53 0
-57 -61 0
-65 -69 0
-73 -77 0
-81 -85 0
-89 -93 0
-89 -97 0
-93 -97 0
-101 -105 0
-109 -113 0
-109 -117 0
-113 -117 0
-121 -125 0
-129 -133 0
-137 -141 0
-137 -145 0
-141 -145 0
-149 -153 0
-157 -161 0
-165 -169 0
-165 -173 0
-169 -173 0
-2 -6 0
-2 -10 0
-6 -10 0
-14 -18 0
-14 -22 0
-18 -22 0
26 30 34 38 0
42 46 50 54 0
-58 -62 0
-66 -70 0
-74 -78 0
-82 -86 0
-90 -94 0
-90 -98 0
-94 -98 0
-102 -106 0
-110 -114 0
-110 -118 0
-114 -118 0
-122 -126 0
-130 -134 0
-138 -142 0
-138 -146 0
-142 -146 0
-150 -154 0
-158 -162 0
-166 -170 0
-166 -174 0
-170 -174 0
-4 -8 0
-4 -12 0
-8 -12 0
-16 -20 0
-16 -24 0
-20 -24 0
28 32 36 40 0
44 48 52 56 0
-60 -64 0
-68 -72 0
-76 -80 0
-84 -88 0
-92 -96 0
-92 -100 0
-96 -100 0
-104 -108 0
-112 -116 0
-112 -120 0
-116 -120 0
-124 -128 0
-132 -136 0
-140 -144 0
-140 -148 0
-144 -148 0
-152 -156 0
-160 -164 0
-168 -172 0
-168 -176 0
-172 -176 0
-3 -7 0
-3 -11 0
-7 -11 0
-15 -19 0
-15 -23 0
-19 -23 0
27 31 35 39 0
43 47 51 55 0
-59 -63 0
-67 -71 0
-75 -79 0
-83 -87 0
-91 -95 0
-91 -99 0
-95 -99 0
-103 -107 0
-111 -115 0
-111 -119 0
-115 -119 0
-123 -127 0
-131 -135 0
-139 -143 0
-139 -147 0
-143 -147 0
-151 -155 0
-159 -163 0
-167 -171 0
-167 -175 0
-171 -175 0
-1 -5 0
-1 -9 0
-5 -9 0
-13 -17 0
-13 -21 0
-17 -21 0
25 29 33 37 0
41 45 49 53 0
-57 -61 0
-65 -69 0
-73 -77 0
-81 -85 0
-89 -93 0
-89 -97 0
-93 -97 0
-101 -105 0
-109 -113 0
-109 -117 0
-113 -117 0
-121 -125 0
-129 -133 0
-137 -141 0
-137 -145 0
-141 -145 0
-149 -153 0
-157 -161 0
-165 -169 0
-165 -173 0
-169 -173 0
-2 -6 0
-2 -10 0
-6 -10 0
-14 -18 0
-14 -22 0
-18 -22 0
26 30 34 38 0
42 46 50 54 0
-58 -62 0
-66 -70 0
-74 -78 0
-82 -86 0
-90 -94 0
-90 -98 0
-94 -98 0
-102 -106 0
-110 -114 0
-110 -118 0
-114 -118 0
-122 -126 0
-130 -134 0
-138 -142 0
-138 -146 0
-142 -146 0
-150 -154 0
-158 -162 0
-166 -170 0
-166 -174 0
-170 -174 0
-4 -8 0
-4 -12 0
-8 -12 0
-16 -20 0
-16 -24 0
-20 -24 0
28 32 36 40 0
44 48 52 56 0
-60 -64 0
-68 -72 0
-76 -80 0
-84 -88 0
-92 -96 0
-92 -100 0
-96 -100 0
-104 -108 0
-112 -116 0
-112 -120 0
-116 -120 0
-124 -128 0
-132 -136 0
-140 -144 0
-140 -148 0
-144 -148 0
-152 -156 0
-160 -164 0
-168 -172 0
-168 -176 0
-172 -176 0
-3 -7 0
-3 -11 0
-7 -11 0
-15 -19 0
-15 -23 0
-19 -23 0
27 31 35 39 0
43 47 51 55 0
-59 -63 0
-67 -71 0
-75 -79 0
-83 -87 0
-91 -95 0
-91 -99 0
-95 -99 0
-103 -107 0
-111 -115 0
-111 -119 0
-115 -119 0
-123 -127 0
-131 -135 0
-139 -143 0
-139 -147 0
-143 -147 0
-151 -155 0
-159 -163 0
-167 -171 0
-167 -175 0
-171 -175 0
-1 -5 0
-1 -9 0
-5 -9 0
-13 -17 0
-13 -21 0
-17 -21 0
25 29 33 37 0
41 45 49 53 0
-57 -61 0
-65 -69 0
-73 -77 0
-81 -85 0
-89 -93 0
-89 -97 0
-93 -97 0
-101 -105 0
-109 -113 0
-109 -117 0
-113 -117 0
-121 -125 0
-129 -133 0
-137 -141 0
-137 -145 0
-141 -145 0
-149 -153 0
-157 -161 0
-165 -169 0
-165 -173 0
-169 -173 0
-2 -6 0
-2 -10 0
-6 -10 0
-14 -18 0
-14 -22 0
-18 -22 0
26 30 34 38 0
42 46 50 54 0
-58 -62 0
-66 -70 0
-74 -78 0
-82 -86 0
-90 -94 0
-90 -98 0
-94 -98 0
-102 -106 0
-110 -114 0
-110 -118 0
-114 -118 0
-122 -126 0
-130 -134 0
-138 -142 0
-138 -146 0
-142 -146 0
-150 -154 0
-158 -162 0
-166 -170 0
-166 -174 0
-170 -174 0
-4 -8 0
-4 -12 0
-8 -12 0
-16 -20 0
-16 -24 0
-20 -24 0
28 32 36 40 0
44 48 52 56 0
-60 -64 0
-68 -72 0
-76 -80 0
-84 -88 0
-92 -96 0
-92 -100 0
-96 -100 0
-104 -108 0
-112 -116 0
-112 -120 0
-116 -120 0
-124 -128 0
-132 -136 0
-140 -144 0
-140 -148 0
-144 -148 0
-152 -156 0
-160 -164 0
-168 -172 0
-168 -176 0
-172 -176 0
-3 -7 0
-3 -11 0
-7 -11 0
-15 -19 0
-15 -23 0
-19 -23 0
27 31 35 39 0
43 47 51 55 0
-59 -63 0
-67 -71 0
-75 -79 0
-83 -87 0
-91 -95 0
-91 -99 0
-95 -99 0
-103 -107 0
-111 -115 0
-111 -119 0
-115 -119 0
-123 -127 0
-131 -135 0
-139 -143 0
-139 -147 0
-143 -147 0
-151 -155 0
-159 -163 0
-167 -171 0
-167 -175 0
-171 -175 0
-1 -5 0
-1 -9 0
-5 -9 0
-13 -17 0
-13 -21 0
-17 -21 0
25 29 33 37 0
41 45 49 53 0
-57 -61 0
-65 -69 0
-73 -77 0
-81 -85 0
-89 -93 0
-89 -97 0
-93 -97 0
-101 -105 0
-109 -113 0
-109 -117 0
-113 -117 0
-121 -125 0
-129 -133 0
-137 -141 0
-137 -145 0
-141 -145 0
-149 -153 0
-157 -161 0
-165 -169 0
-165 -173 0
-169 -173 0
-2 -6 0
-2 -10 0
-6 -10 0
-14 -18 0
-14 -22 0
-18 -22 0
26 30 34 38 0
42 46 50 54 0
-58 -62 0
-66 -70 0
-74 -78 0
-82 -86 0
-90 -94 0
-90 -98 0
-94 -98 0
-102 -106 0
-110 -114 0
-110 -118 0
-114 -118 0
-122 -126 0
-130 -134 0
-138 -142 0
-138 -146 0
-142 -146 0
-150 -154 0
-158 -162 0
-166 -170 0
-166 -174 0
-170 -174 0
-4 -8 0
-4 -12 0
-8 -12 0
-16 -20 0
-16 -24 0
-20 -24 0
28 32 36 40 0
44 48 52 56 0
-60 -64 0
-68 -72 0
-76 -80 0
-84 -88 0
-92 -96 0
-92 -100 0
-96 -100 0
-104 -108 0
-112 -116 0
-112 -120 0
-116 -120 0
-124 -128 0
-132 -136 0
-140 -144 0
-140 -148 0
-144 -148 0
-152 -156 0
-160 -164 0
-168 -172 0
-168 -176 0
-172 -176 0
-3 -7 0
-3 -11 0
-7 -11 0
-15 -19 0
-15 -23 0
-19 -23 0
27 31 35 39 0
43 47 51 55 0
-59 -63 0
-67 -71 0
-75 -79 0
-83 -87 0
-91 -95 0
-91 -99 0
-95 -99 0
-103 -107 0
-111 -115 0
-111 -119 0
-115 -119 0
-123 -127 0
-131 -135 0
-139 -143 0
-139 -147 0
-143 -147 0
-151 -155 0
-159 -163 0
-167 -171 0
-167 -175 0
-171 -175 0
-1 -5 0
-1 -9 0
-5 -9 0
-13 -17 0
-13 -21 0
-17 -21 0
25 29 33 37 0
41 45 49 53 0
-57 -61 0
-65 -69 0
-73 -77 0
-81 -85 0
-89 -93 0
-89 -97 0
-93 -97 0
-101 -105 0
-109 -113 0
-109 -117 0
-113 -117 0
-121 -125 0
-129 -133 0
-137 -141 0
-137 -145 0
-141 -145 0
-149 -153 0
-157 -161 0
-165 -169 0
-165 -173 0
-169 -173 0
-2 -6 0
-2 -10 0
-6 -10 0
-14 -18 0
-14 -22 0
-18 -22 0
26 30 34 38 0
42 46 50 54 0
-58 -62 0
-66 -70 0
-74 -78 0
-82 -86 0
-90 -94 0
-90 -98 0
-94 -98 0
-102 -106 0
-110 -114 0
-110 -118 0
-114 -118 0
-122 -126 0
-130 -134 0
-138 -142 0
-138 -146 0
-142 -146 0
-150 -154 0
-158 -162 0
-166 -170 0
-166 -174 0
-170 -174 0
-4 -8 0
-4 -12 0
-8 -12 0
-16 -20 0
-16 -24 0
-20 -24 0
28 32 36 40 0
44 48 52 56 0
-60 -64 0
-68 -72 0
-76 -80 0
-84 -88 0
-92 -96 0
-92 -100 0
-96 -100 0
-104 -108 0
-112 -116 0
-112 -120 0
-116 -120 0
-124 -128 0
-132 -136 0
-140 -144 0
-140 -148 0
-144 -148 0
-152 -156 0
-160 -164 0
-168 -172 0
-168 -176 0
-172 -176 0
-3 -7 0
-3 -11 0
-7 -11 0
-15 -19 0
-15 -23 0
-19 -23 0
27 31 35 39 0
43 47 51 55 0
-59 -63 0
-67 -71 0
-75 -79 0
-83 -87 0
-91 -95 0
-91 -99 0
-95 -99 0
-103 -107 0
-111 -115 0
-111 -119 0
-115 -119 0
-123 -127 0
-131 -135 0
-139 -143 0
-139 -147 0
-143 -147 0
-151 -155 0
-159 -163 0
-167 -171 0
-167 -175 0
-171 -175 0
-1 -5 0
-1 -9 0
-5 -9 0
-13 -17 0
-13 -21 0
-17 -21 0
25 29 33 37 0
41 45 49 53 0
-57 -61 0
-65 -69 0
-73 -77 0
-81 -85 0
-89 -93 0
-89 -97 0
-93 -97 0
-101 -105 0
-109 -113 0
-109 -117 0
-113 -117 0
-121 -125 0
-129 -133 0
-137 -141 0
-137 -145 0
-141 -145 0
-149 -153 0
-157 -161 0
-165 -169 0
-165 -173 0
-169 -173 0
-2 -6 0
-2 -10 0
-6 -10 0
-14 -18 0
-14 -22 0
-18 -22 0
26 30 34 38 0
42 46 50 54 0
-58 -62 0
-66 -70 0
-74 -78 0
-82 -86 0
-90 -94 0
-90 -98 0
-94 -98 0
-102 -106 0
-110 -114 0
-110 -118 0
-114 -118 0
-122 -126 0
-130 -134 0
-138 -142 0
-138 -146 0
-142 -146 0
-150 -154 0
-158 -162 0
-166 -170 0
-166 -174 0
-170 -174 0
-4 -8 0
-4 -12 0
-8 -12 0
-16 -20 0
-16 -24 0
-20 -24 0
28 32 36 40 0
44 48 52 56 0
-60 -64 0
-68 -72 0
-76 -80 0
-84 -88 0
-92 -96 0
-92 -100 0
-96 -100 0
-104 -108 0
-112 -116 0
-112 -120 0
-116 -120 0
-124 -128 0
-132 -136 0
-140 -144 0
-140 -148 0
-144 -148 0
-152 -156 0
-160 -164 0
-168 -172 0
-168 -176 0
-172 -176 0
-3 -7 0
-3 -11 0
-7 -11 0
-15 -19 0
-15 -23 0
-19 -23 0
27 31 35 39 0
43 47 51 55 0
-59 -63 0
-67 -71 0
-75 -79 0
-83 -87 0
-91 -95 0
-91 -99 0
-95 -99 0
-103 -107 0
-111 -115 0
-111 -119 0
-115 -119 0
-123 -127 0
-131 -135 0
-139 -143 0
-139 -147 0
-143 -147 0
-151 -155 0
-159 -163 0
-167 -171 0
-167 -175 0
-171 -175 0
2 18 46 26 0
1 17 45 25 0
4 20 48 28 0
3 19 47 27 0
2 18 46 38 110 102 90 0
1 17 45 37 109 101 89 0
4 20 48 40 112 104 92 0
3 19 47 39 111 103 91 0
2 18 46 38 118 126 134 142 174 90 0
1 17 45 37 117 125 133 141 173 89 0
4 20 48 40 120 128 136 144 176 92 0
3 19 47 39 119 127 135 143 175 91 0
2 18 46 38 118 126 134 146 150 158 174 90 0
1 17 45 37 117 125 133 145 149 157 173 89 0
4 20 48 40 120 128 136 148 152 160 176 92 0
3 19 47 39 119 127 135 147 151 159 175 91 0
2 18 50 70 58 26 0
1 17 49 69 57 25 0
4 20 52 72 60 28 0
3 19 51 71 59 27 0
2 18 50 70 58 38 110 102 90 0
1 17 49 69 57 37 109 101 89 0
4 20 52 72 60 40 112 104 92 0
3 19 51 71 59 39 111 103 91 0
2 18 50 70 58 38 118 126 134 142 174 90 0
1 17 49 69 57 37 117 125 133 141 173 89 0
4 20 52 72 60 40 120 128 136 144 176 92 0
3 19 51 71 59 39 119 127 135 143 175 91 0
2 18 50 70 58 38 118 126 134 146 150 158 174 90 0
1 17 49 69 57 37 117 125 133 145 149 157 173 89 0
4 20 52 72 60 40 120 128 136 148 152 160 176 92 0
3 19 51 71 59 39 119 127 135 147 151 159 175 91 0
2 22 78 86 46 26 0
1 21 77 85 45 25 0
4 24 80 88 48 28 0
3 23 79 87 47 27 0
2 22 78 86 46 38 110 102 90 0
1 21 77 85 45 37 109 101 89 0
4 24 80 88 48 40 112 104 92 0
3 23 79 87 47 39 111 103 91 0
2 22 78 86 46 38 118 126 134 142 174 90 0
1 21 77 85 45 37 117 125 133 141 173 89 0
4 24 80 88 48 40 120 128 136 144 176 92 0
3 23 79 87 47 39 119 127 135 143 175 91 0
2 22 78 86 46 38 118 126 134 146 150 158 174 90 0
1 21 77 85 45 37 117 125 133 145 149 157 173 89 0
4 24 80 88 48 40 120 128 136 148 152 160 176 92 0
3 23 79 87 47 39 119 127 135 147 151 159 175 91 0
2 22 78 86 50 70 58 26 0
1 21 77 85 49 69 57 25 0
4 24 80 88 52 72 60 28 0
3 23 79 87 51 71 59 27 0
2 22 78 86 50 70 58 38 110 102 90 0
1 21 77 85 49 69 57 37 109 101 89 0
4 24 80 88 52 72 60 40 112 104 92 0
3 23 79 87 51 71 59 39 111 103 91 0
2 22 78 86 50 70 58 38 118 126 134 142 174 90 0
1 21 77 85 49 69 57 37 117 125 133 141 173 89 0
4 24 80 88 52 72 60 40 120 128 136 144 176 92 0
3 23 79 87 51 71 59 39 119 127 135 143 175 91 0
2 22 78 86 50 70 58 38 118 126 134 146 150 158 174 90 0
1 21 77 85 49 69 57 37 117 125 133 145 149 157 173 89 0
4 24 80 88 52 72 60 40 120 128 136 148 152 160 176 92 0
3 23 79 87 51 71 59 39 119 127 135 147 151 159 175 91 0
6 30 42 14 0
5 29 41 13 0
8 32 44 16 0
7 31 43 15 0
6 30 54 82 74 14 0
5 29 53 81 73 13 0
8 32 56 84 76 16 0
7 31 55 83 75 15 0
6 34 62 66 42 14 0
5 33 61 65 41 13 0
8 36 64 68 44 16 0
7 35 63 67 43 15 0
6 34 62 66 54 82 74 14 0
5 33 61 65 53 81 73 13 0
8 36 64 68 56 84 76 16 0
7 35 63 67 55 83 75 15 0
6 38 110 102 90 0
5 37 109 101 89 0
8 40 112 104 92 0
7 39 111 103 91 0
6 38 118 126 134 142 174 90 0
5 37 117 125 133 141 173 89 0
8 40 120 128 136 144 176 92 0
7 39 119 127 135 143 175 91 0
6 38 118 126 134 146 150 158 174 90 0
5 37 117 125 133 145 149 157 173 89 0
8 40 120 128 136 148 152 160 176 92 0
7 39 119 127 135 147 151 159 175 91 0
10 94 106 114 26 0
9 93 105 113 25 0
12 96 108 116 28 0
11 95 107 115 27 0
10 94 106 114 30 42 14 0
9 93 105 113 29 41 13 0
12 96 108 116 32 44 16 0
11 95 107 115 31 43 15 0
10 94 106 114 30 54 82 74 14 0
9 93 105 113 29 53 81 73 13 0
12 96 108 116 32 56 84 76 16 0
11 95 107 115 31 55 83 75 15 0
10 94 106 114 34 62 66 42 14 0
9 93 105 113 33 61 65 41 13 0
12 96 108 116 36 64 68 44 16 0
11 95 107 115 35 63 67 43 15 0
10 94 106 114 34 62 66 54 82 74 14 0
9 93 105 113 33 61 65 53 81 73 13 0
12 96 108 116 36 64 68 56 84 76 16 0
11 95 107 115 35 63 67 55 83 75 15 0
10 98 166 138 130 122 114 26 0
9 97 165 137 129 121 113 25 0
12 100 168 140 132 124 116 28 0
11 99 167 139 131 123 115 27 0
10 98 166 138 130 122 114 30 42 14 0
9 97 165 137 129 121 113 29 41 13 0
12 100 168 140 132 124 116 32 44 16 0
11 99 167 139 131 123 115 31 43 15 0
10 98 166 138 130 122 114 30 54 82 74 14 0
9 97 165 137 129 121 113 29 53 81 73 13 0
12 100 168 140 132 124 116 32 56 84 76 16 0
11 99 167 139 131 123 115 31 55 83 75 15 0
10 98 166 138 130 122 114 34 62 66 42 14 0
9 97 165 137 129 121 113 33 61 65 41 13 0
12 100 168 140 132 124 116 36 64 68 44 16 0
11 99 167 139 131 123 115 35 63 67 43 15 0
10 98 166 138 130 122 114 34 62 66 54 82 74 14 0
9 97 165 137 129 121 113 33 61 65 53 81 73 13 0
12 100 168 140 132 124 116 36 64 68 56 84 76 16 0
11 99 167 139 131 123 115 35 63 67 55 83 75 15 0
10 98 170 162 154 138 130 122 114 26 0
9 97 169 161 153 137 129 121 113 25 0
12 100 172 164 156 140 132 124 116 28 0
11 99 171 163 155 139 131 123 115 27 0
10 98 170 162 154 138 130 122 114 30 42 14 0
9 97 169 161 153 137 129 121 113 29 41 13 0
12 100 172 164 156 140 132 124 116 32 44 16 0
11 99 171 163 155 139 131 123 115 31 43 15 0
10 98 170 162 154 138 130 122 114 30 54 82 74 14 0
9 97 169 161 153 137 129 121 113 29 53 81 73 13 0
12 100 172 164 156 140 132 124 116 32 56 84 76 16 0
11 99 171 163 155 139 131 123 115 31 55 83 75 15 0
10 98 170 162 154 138 130 122 114 34 62 66 42 14 0
9 97 169 161 153 137 129 121 113 33 61 65 41 13 0
12 100 172 164 156 140 132 124 116 36 64 68 44 16 0
11 99 171 163 155 139 131 123 115 35 63 67 43 15 0
10 98 170 162 154 138 130 122 114 34 62 66 54 82 74 14 0
9 97 169 161 153 137 129 121 113 33 61 65 53 81 73 13 0
12 100 172 164 156 140 132 124 116 36 64 68 56 84 76 16 0
11 99 171 163 155 139 131 123 115 35 63 67 55 83 75 15 0
18 54 82 74 0
17 53 81 73 0
20 56 84 76 0
19 55 83 75 0
22 78 86 42 0
21 77 85 41 0
24 80 88 44 0
23 79 87 43 0
30 50 70 58 0
29 49 69 57 0
32 52 72 60 0
31 51 71 59 0
34 62 66 46 0
33 61 65 45 0
36 64 68 48 0
35 63 67 47 0
94 106 118 126 134 142 174 0
93 105 117 125 133 141 173 0
96 108 120 128 136 144 176 0
95 107 119 127 135 143 175 0
94 106 118 126 134 146 150 158 174 0
93 105 117 125 133 145 149 157 173 0
96 108 120 128 136 148 152 160 176 0
95 107 119 127 135 147 151 159 175 0
98 166 138 130 122 110 102 0
97 165 137 129 121 109 101 0
100 168 140 132 124 112 104 0
99 167 139 131 123 111 103 0
98 170 162 154 138 130 122 110 102 0
97 169 161 153 137 129 121 109 101 0
100 172 164 156 140 132 124 112 104 0
99 171 163 155 139 131 123 111 103 0
142 170 162 154 0
141 169 161 153 0
144 172 164 156 0
143 171 163 155 0
146 150 158 166 0
145 149 157 165 0
148 152 160 168 0
147 151 159 167 0
